1326.66,42.68,51.16
1436.14,39.43,47.26
1487.16,38.08,45.64
1415.64,40.0,47.94
1290.5,43.88,52.59
1382.63,40.96,49.09
1422.22,39.82,47.72
1349.74,41.95,50.28
1231.92,45.97,55.09
1405.98,40.28,48.27
1390.1,40.74,48.82
1322.55,42.82,51.31
1293.86,43.77,52.45
1264.2,44.79,53.68
1241.97,45.59,54.64
1470.98,38.5,46.14
1400.71,40.43,48.45
1341.77,42.2,50.58
1394.23,40.62,48.68
1361.32,41.6,49.85
